nproducts = 10;      
nsites = 5;
ncustomers = 4;

eb = [|1200, 1000, 1100, 3000, 1300, 900, 600, 1900, 1000, 1400,
      |1200, 1000, 2000, 1000, 1100, 600, 500, 1800, 1000, 1400,
      |1300, 1000, 1300, 1200, 1200, 1000, -200, 1700, 1000, 1400,
      |1300, 1100, 1500, 1400, 1400, 1000, 700, 2000, 1000, 1400|]; 
              
pname = ["Golf", "E-Golf", "Passat", "T-Roc", "Sharan", "Up", "E-Up", "Touareq", "Polo", "Tiguan"];
weight = [1380, 1615, 1465, 1245, 1695 ,980, 1235, 2005, 1120, 1510];

emissionWLTP = [108, 0, 139, 131, 170, 123, 0, 233, 125, 142];
supercredit = [100, 166, 100, 100, 100, 100, 166, 100, 100, 100];

sname = ["Wolfsburg", "Emden", "Palmela", "Bratislava", "Kaluga"];

cname = ["Frankreich", "Schweden", "Belgien", "Italien"];

productionPlan = [|1, 1, 0, 0, 0, 0, 0, 0, 0, 0,
                  |0, 0, 1, 0, 0, 0, 0, 0, 0, 0,
                  |0, 0, 0, 1, 1, 0, 0, 0, 0, 0,
                  |0, 0, 0, 0, 0, 1, 1, 1, 0, 0,
                  |0, 0, 0, 0, 0, 0, 0, 0, 1, 1|];
          
demand = [|200,170,300,100,100,130,40,100,100,100,
          |150,70,150,110,40,90,70,150,100,100,
          |180,90,180,180,20,30,30,20,150,150,
          |110,60,220,120,120,40,40,120,150,150|];
          
excessdemand = [1.2, 1.2, 1.2, 1.2, 1.2, 1.2, 1.2, 1.2, 1.2, 1.2];

%maxProduction= [1037, 850, 800, 768];
maxProduction= [1300, 1000, 1000, 1000, 1300];

payperfine = 95;